0 115 
1 117 
2 118 
3 124 
4 126 
5 126 
6 126 
7 127 
8 126 
9 125 
10 125 
11 124 
12 123 
13 120 
14 123 
15 122 
16 125 
17 123 
18 123 
19 123 
20 119 
21 118 
22 117 
23 117 
24 116 
25 112 
26 111 
27 109 
28 110 
29 109 
30 107 
31 104 
32 102 
33 99 
34 98 
35 100 
36 98 
37 97 
38 93 
39 90 
40 89 
41 86 
42 85 
43 84 
44 87 
45 89 
46 89 
47 85 
48 83 
49 84 
50 83 
51 82 
52 82 
53 84 
54 87 
55 83 
56 79 
57 75 
58 72 
59 70 
60 68 
61 67 
62 69 
63 69 
64 66 
65 64 
66 63 
67 59 
68 57 
69 55 
70 51 
71 54 
72 49 
73 46 
74 43 
75 43 
76 42 
77 41 
78 41 
79 40 
80 40 
81 40 
82 43 
83 44 
84 41 
85 40 
86 38 
87 37 
88 35 
89 33 
90 31 
91 30 
92 28 
93 25 
94 24 
95 22 
96 14 
97 13 
98 11 
99 10 
100 11 
101 6 
102 5 
103 3 
104 2 
105 0 
106 0 

